SiC
1.0
   3.094884000	   0.000000000	   0.000000000
  -1.547442000	   2.680248000	   0.000000000
   0.000000000	   0.000000000	  15.184530000
Si C Si C
4 5 2 1
direct
   0.333333000    0.666667000    0.832986000  Si
   0.666667000    0.333333000    0.332986000  Si
   0.666667000    0.333333000    0.666509000  Si
   0.000000000    0.000000000    0.000000000  Si
   0.000000000    0.000000000    0.874352000  C
   0.000000000    0.000000000    0.374352000  C
   0.333333000    0.666667000    0.708004000  C
   0.666667000    0.333333000    0.208004000  C
   0.666667000    0.333333000    0.541526000  C
   0.333333000    0.666667000    0.166509000  Si
   0.000000000    0.000000000    0.499723000  Si
   0.333333000    0.666667000    0.041526000  C
