Methane
1.0
   3.348920000	   0.000000000	   1.933500000
   1.116307000	   3.157392000	   1.933500000
   0.000000000	   0.000000000	   3.867000000
C H
1 4
Selective dynamics
direct
   0.155731000    0.126801000   -0.141266000 T T T C
   0.475237000    0.126801000   -0.301019000 T T T H
  -0.034485000    0.377948000   -0.010467000 T T T H
   0.148101000   -0.169817000    0.107814000 T T T H
   0.034070000    0.172275000   -0.361393000 T T T H
